NAME          DCAP_3_4_2_500_SS411
ROWS
 N  OBJ
 L  CON1
 L  CON2
 L  CON3
 L  CON4
 L  CON5
 L  CON6
 L  CON7
 L  CON8
 L  CON9
 L  CON10
 L  CON11
 L  CON12
 E  CON13
 E  CON14
 E  CON15
 E  CON16
 E  CON17
 E  CON18
 E  CON19
 E  CON20
COLUMNS
    x[1,1]    OBJ       6.180167      CON1      1.000000    
    x[1,1]    CON7      -1.000000     CON8      -1.000000   
    x[1,2]    OBJ       5.039546      CON2      1.000000    
    x[1,2]    CON8      -1.000000   
    x[2,1]    OBJ       6.732585      CON3      1.000000    
    x[2,1]    CON9      -1.000000     CON10     -1.000000   
    x[2,2]    OBJ       7.443064      CON4      1.000000    
    x[2,2]    CON10     -1.000000   
    x[3,1]    OBJ       6.563535      CON5      1.000000    
    x[3,1]    CON11     -1.000000     CON12     -1.000000   
    x[3,2]    OBJ       6.054841      CON6      1.000000    
    x[3,2]    CON12     -1.000000   
    MARKER    'MARKER'                'INTORG'
    u[1,1]    OBJ       48.076654     CON1      -1.000000   
    u[1,2]    OBJ       49.466655     CON2      -1.000000   
    u[2,1]    OBJ       49.996186     CON3      -1.000000   
    u[2,2]    OBJ       32.230043     CON4      -1.000000   
    u[3,1]    OBJ       20.066487     CON5      -1.000000   
    u[3,2]    OBJ       27.484319     CON6      -1.000000   
    y[1,1,1]  OBJ       9.207101      CON7      1.365159    
    y[1,1,1]  CON13     1.000000    
    y[1,1,2]  OBJ       9.816921      CON8      0.799678    
    y[1,1,2]  CON14     1.000000    
    y[1,2,1]  OBJ       9.606053      CON7      0.501135    
    y[1,2,1]  CON15     1.000000    
    y[1,2,2]  OBJ       9.271724      CON8      0.998875    
    y[1,2,2]  CON16     1.000000    
    y[1,3,1]  OBJ       7.068682      CON7      1.134226    
    y[1,3,1]  CON17     1.000000    
    y[1,3,2]  OBJ       8.487903      CON8      1.099922    
    y[1,3,2]  CON18     1.000000    
    y[1,4,1]  OBJ       9.861475      CON7      0.747966    
    y[1,4,1]  CON19     1.000000    
    y[1,4,2]  OBJ       9.591241      CON8      1.462562    
    y[1,4,2]  CON20     1.000000    
    y[2,1,1]  OBJ       5.592545      CON9      1.365159    
    y[2,1,1]  CON13     1.000000    
    y[2,1,2]  OBJ       5.066119      CON10     0.799678    
    y[2,1,2]  CON14     1.000000    
    y[2,2,1]  OBJ       7.786295      CON9      0.501135    
    y[2,2,1]  CON15     1.000000    
    y[2,2,2]  OBJ       5.985764      CON10     0.998875    
    y[2,2,2]  CON16     1.000000    
    y[2,3,1]  OBJ       9.134536      CON9      1.134226    
    y[2,3,1]  CON17     1.000000    
    y[2,3,2]  OBJ       6.347164      CON10     1.099922    
    y[2,3,2]  CON18     1.000000    
    y[2,4,1]  OBJ       6.941667      CON9      0.747966    
    y[2,4,1]  CON19     1.000000    
    y[2,4,2]  OBJ       8.938453      CON10     1.462562    
    y[2,4,2]  CON20     1.000000    
    y[3,1,1]  OBJ       9.962149      CON11     1.365159    
    y[3,1,1]  CON13     1.000000    
    y[3,1,2]  OBJ       5.379999      CON12     0.799678    
    y[3,1,2]  CON14     1.000000    
    y[3,2,1]  OBJ       6.903116      CON11     0.501135    
    y[3,2,1]  CON15     1.000000    
    y[3,2,2]  OBJ       9.456643      CON12     0.998875    
    y[3,2,2]  CON16     1.000000    
    y[3,3,1]  OBJ       9.091018      CON11     1.134226    
    y[3,3,1]  CON17     1.000000    
    y[3,3,2]  OBJ       5.543731      CON12     1.099922    
    y[3,3,2]  CON18     1.000000    
    y[3,4,1]  OBJ       6.652152      CON11     0.747966    
    y[3,4,1]  CON19     1.000000    
    y[3,4,2]  OBJ       7.460677      CON12     1.462562    
    y[3,4,2]  CON20     1.000000    
    z[1,1]    OBJ       821.846477    CON13     1.000000    
    z[1,2]    OBJ       850.480117    CON14     1.000000    
    z[2,1]    OBJ       572.544401    CON15     1.000000    
    z[2,2]    OBJ       990.602860    CON16     1.000000    
    z[3,1]    OBJ       521.220147    CON17     1.000000    
    z[3,2]    OBJ       765.026366    CON18     1.000000    
    z[4,1]    OBJ       559.041516    CON19     1.000000    
    z[4,2]    OBJ       806.052163    CON20     1.000000    
    MARKER    'MARKER'                 'INTEND'
RHS
    RHS       CON1      -0.000000     CON2      -0.000000   
    RHS       CON3      -0.000000     CON4      -0.000000   
    RHS       CON5      -0.000000     CON6      -0.000000   
    RHS       CON7      -0.000000     CON8      -0.000000   
    RHS       CON9      -0.000000     CON10     -0.000000   
    RHS       CON11     -0.000000     CON12     -0.000000   
    RHS       CON13     1.000000      CON14     1.000000    
    RHS       CON15     1.000000      CON16     1.000000    
    RHS       CON17     1.000000      CON18     1.000000    
    RHS       CON19     1.000000      CON20     1.000000    
BOUNDS
 BV BOUND     u[1,1]  
 BV BOUND     u[1,2]  
 BV BOUND     u[2,1]  
 BV BOUND     u[2,2]  
 BV BOUND     u[3,1]  
 BV BOUND     u[3,2]  
 BV BOUND     y[1,1,1]
 BV BOUND     y[1,1,2]
 BV BOUND     y[1,2,1]
 BV BOUND     y[1,2,2]
 BV BOUND     y[1,3,1]
 BV BOUND     y[1,3,2]
 BV BOUND     y[1,4,1]
 BV BOUND     y[1,4,2]
 BV BOUND     y[2,1,1]
 BV BOUND     y[2,1,2]
 BV BOUND     y[2,2,1]
 BV BOUND     y[2,2,2]
 BV BOUND     y[2,3,1]
 BV BOUND     y[2,3,2]
 BV BOUND     y[2,4,1]
 BV BOUND     y[2,4,2]
 BV BOUND     y[3,1,1]
 BV BOUND     y[3,1,2]
 BV BOUND     y[3,2,1]
 BV BOUND     y[3,2,2]
 BV BOUND     y[3,3,1]
 BV BOUND     y[3,3,2]
 BV BOUND     y[3,4,1]
 BV BOUND     y[3,4,2]
 BV BOUND     z[1,1]  
 BV BOUND     z[1,2]  
 BV BOUND     z[2,1]  
 BV BOUND     z[2,2]  
 BV BOUND     z[3,1]  
 BV BOUND     z[3,2]  
 BV BOUND     z[4,1]  
 BV BOUND     z[4,2]  
ENDATA
